(set-info :status unknown)
(declare-fun mem0 () (_ BitVec 8))
(declare-fun u_%Y () (_ BitVec 8))
(declare-fun |ana_isPowerOf2(%A)| () (_ BitVec 1))
(declare-fun %B () (_ BitVec 11))
(declare-fun %A () (_ BitVec 11))
(assert
 (let (($x5426 (= |ana_isPowerOf2(%A)| (_ bv1 1))))
 (let (($x23633 (bvult %B (_ bv11 11))))
 (let (($x12266 (=> $x5426 (and (and (distinct %A (_ bv0 11)) true) (= (bvand %A (bvsub %A (_ bv1 11))) (_ bv0 11))))))
 (and $x12266 $x23633 $x5426 (= u_%Y (_ bv1 8)) (and (distinct mem0 mem0) true))))))
(check-sat)
